
<<< setup


<<< generate

Version identifier: 12.10.0.0 | 2019-11-26 | 843d4de2ae
CPXPARAM_TimeLimit                               1200
Tried aggregator 3 times.
MIP Presolve eliminated 5148662 rows and 2913323 columns.
MIP Presolve modified 422584 coefficients.
Aggregator did 984 substitutions.
Reduced MIP has 93404 rows, 97243 columns, and 608116 nonzeros.
Reduced MIP has 97193 binaries, 0 generals, 0 SOSs, and 0 indicators.
Presolve time = 7.63 sec. (4680.92 ticks)
Found incumbent of value 0.000000 after 11.11 sec. (6099.53 ticks)
Probing fixed 2397 vars, tightened 0 bounds.
Probing time = 39.14 sec. (7813.99 ticks)
Tried aggregator 1 time.
Detecting symmetries...
MIP Presolve eliminated 2397 rows and 2397 columns.
Reduced MIP has 91007 rows, 94846 columns, and 592138 nonzeros.
Reduced MIP has 94796 binaries, 0 generals, 0 SOSs, and 0 indicators.
Presolve time = 0.77 sec. (425.66 ticks)
Probing time = 0.27 sec. (47.43 ticks)
Clique table members: 332056.
MIP emphasis: balance optimality and feasibility.
MIP search method: dynamic search.
Parallel mode: deterministic, using up to 4 threads.
Root relaxation solution time = 9.38 sec. (4289.19 ticks)

        Nodes                                         Cuts/
   Node  Left     Objective  IInf  Best Integer    Best Bound    ItCnt     Gap

*     0+    0                            0.0000   123998.0000              --- 
      0     0    68783.0000   498        0.0000    68783.0000     8899     --- 
*     0+    0                        39166.0000    68783.0000            75.62%
      0     0    68783.0000   498    39166.0000    MIRcuts: 1     8900   75.62%
      0     0    68783.0000   498    39166.0000    Cuts: 7358    11696   75.62%
      0     0    68783.0000   498    39166.0000    Cuts: 2643    12358   75.62%
*     0+    0                        51181.0000    68783.0000            34.39%
      0     0        cutoff          51181.0000    68783.0000    12358   34.39%
      0     0    68783.0000   498    51181.0000    Cuts: 9305    18059   34.39%
*     0+    0                        53210.0000    68783.0000            29.27%
      0     0        cutoff          53210.0000    68783.0000    18059   29.27%
      0     2    68783.0000   122    53210.0000    68783.0000    18059   29.27%
Elapsed time = 204.38 sec. (90368.90 ticks, tree = 0.02 MB, solutions = 4)
      1     3    68783.0000   350    53210.0000    68783.0000    28480   29.27%
      2     3    68783.0000   219    53210.0000    68783.0000    35440   29.27%
      4     6    68783.0000   450    53210.0000    68783.0000    60261   29.27%
      5     7    68783.0000   347    53210.0000    68783.0000    62504   29.27%
      6     8    68783.0000   402    53210.0000    68783.0000    73854   29.27%
      7     9    68783.0000   366    53210.0000    68783.0000    75048   29.27%
      8    10    68783.0000   371    53210.0000    68783.0000    75821   29.27%
      9     5    68783.0000   193    53210.0000    68783.0000    55235   29.27%
     10     8    68783.0000   280    53210.0000    68783.0000    72750   29.27%
     11     4    68783.0000   288    53210.0000    68783.0000    40262   29.27%
Elapsed time = 287.09 sec. (134660.03 ticks, tree = 0.02 MB, solutions = 4)
     13     9    68783.0000   301    53210.0000    68783.0000    83950   29.27%
     16    10    68783.0000   310    53210.0000    68783.0000    88792   29.27%
     18    12    68783.0000   285    53210.0000    68783.0000    92836   29.27%
     19    13    68783.0000   280    53210.0000    68783.0000    93364   29.27%
     20    14    68783.0000   339    53210.0000    68783.0000    97936   29.27%
     26    23    68783.0000   237    53210.0000    68783.0000   166182   29.27%
     30    18    68783.0000   355    53210.0000    68783.0000   100691   29.27%
     33    24    68783.0000   248    53210.0000    68783.0000   170372   29.27%
     41    20    68783.0000   342    53210.0000    68783.0000   103233   29.27%
     46    21    68783.0000   300    53210.0000    68783.0000   103797   29.27%
Elapsed time = 339.33 sec. (155537.17 ticks, tree = 0.68 MB, solutions = 4)
     48    31    68783.0000   243    53210.0000    68783.0000   120664   29.27%
     51    33    68783.0000   155    53210.0000    68783.0000   122536   29.27%
*    52+    3                        60390.0000    68783.0000            13.90%
     56    48    68783.0000   197    60390.0000    68783.0000   182576   13.90%
     64    52    68783.0000   153    60390.0000    68783.0000   185270   13.90%
     72    52    68783.0000   154    60390.0000    68783.0000   185348   13.90%
     79    55    68783.0000   184    60390.0000    68783.0000   187317   13.90%
*    80+    3                        61374.0000    68783.0000            12.07%
     89    58    68783.0000   303    61374.0000    68783.0000   189372   12.07%
     92    60    68783.0000   265    61374.0000    68783.0000   191137   12.07%
     95    63    68783.0000   166    61374.0000    68783.0000   193202   12.07%
     96    52    68783.0000   240    61374.0000    68783.0000   198493   12.07%
Elapsed time = 373.22 sec. (167356.65 ticks, tree = 1.42 MB, solutions = 6)
     98    87    68783.0000   135    61374.0000    68783.0000   227776   12.07%
     99    69    68783.0000   110    61374.0000    68783.0000   217133   12.07%
    101    89    68783.0000   170    61374.0000    68783.0000   231835   12.07%
    102    90    68783.0000   139    61374.0000    68783.0000   235224   12.07%
    103    88    68783.0000   111    61374.0000    68783.0000   227801   12.07%
    105    92    68783.0000   120    61374.0000    68783.0000   235636   12.07%
    106    93    68783.0000   114    61374.0000    68783.0000   236283   12.07%
    107    94    infeasible          61374.0000    68783.0000   236515   12.07%
    108    93    infeasible          61374.0000    68783.0000   236552   12.07%
    109    93    68783.0000   150    61374.0000    68783.0000   235818   12.07%
Elapsed time = 541.97 sec. (196587.14 ticks, tree = 2.59 MB, solutions = 6)
*   114+   81                        68783.0000    68783.0000             0.00%
    114    90    68783.0000   231    68783.0000    68783.0000   255154    0.00%
    115    98    68783.0000   272    68783.0000    68783.0000   264091    0.00%
    116    94    68783.0000   468    68783.0000    68783.0000   237817    0.00%

Implied bound cuts applied:  224
Flow cuts applied:  415
Mixed integer rounding cuts applied:  1485
Gomory fractional cuts applied:  1

Root node processing (before b&c):
  Real time             =  201.74 sec. (89479.31 ticks)
Parallel b&c, 4 threads:
  Real time             =  389.78 sec. (132469.02 ticks)
  Sync time (average)   =   75.42 sec.
  Wait time (average)   =    0.00 sec.
                          ------------
Total (root+branch&cut) =  591.52 sec. (221948.34 ticks)

<<< solve


OBJECTIVE: 68783

<<< post process


<<< done

